benchmarks/bfuzz0/3022328930227882005213671400870137994.smt2
(set-logic QF_FP)
(declare-const x0 (_ FloatingPoint 11 53))
(declare-const x1 (_ FloatingPoint 11 53))
(declare-const x2 (_ FloatingPoint 11 53))
(declare-const x3 (_ FloatingPoint 11 53))
(declare-const x4 (_ FloatingPoint 11 53))
(assert (fp.gt (fp.neg (fp.sub RNE (fp.add RNE x2 x0) (fp.add RNE x1 x0))) (fp.mul RNE (fp.mul RNE (fp.mul RNE x3 x3) (fp.div RNE x4 x2)) (fp.sub RNE (fp.mul RNE x3 x2) (fp.neg x0)))))
(assert (fp.gt (fp.mul RNE (fp.div RNE (fp.sub RNE x0 x1) (fp.div RNE x4 x4)) (fp.sub RNE (fp.neg x0) (fp.sub RNE x1 x3))) (fp.sub RNE (fp.mul RNE (fp.div RNE x1 x4) (fp.div RNE x0 x0)) (fp.mul RNE (fp.mul RNE x1 x3) (fp.mul RNE x2 x0)))))
(check-sat)
