db/data/3022328930227882005213671400870137994.z3.out
-------------------
2500.124477151
